(set-info :smt-lib-version 2.6)
(set-info :category "crafted")
(set-logic QF_FF)
(define-sort FF0 () (_ FiniteField 52435875175126190479447740508185965837690552500527637822603658699938581184513))
(declare-fun b () Bool)
(declare-fun a () Bool)
(declare-fun c () Bool)
(declare-fun d () Bool)
(declare-fun h () Bool)
(declare-fun g () Bool)
(declare-fun f () Bool)
(declare-fun e () Bool)
(declare-fun return_n5 () FF0)
(declare-fun mul_n38 () FF0)
(declare-fun mul_n12 () FF0)
(declare-fun mul_n28 () FF0)
(declare-fun mul_n37 () FF0)
(declare-fun mul_n30 () FF0)
(declare-fun mul_n33 () FF0)
(declare-fun mul_n36 () FF0)
(declare-fun mul_n29 () FF0)
(declare-fun is_zero_n32 () FF0)
(declare-fun is_zero_inv_n39 () FF0)
(declare-fun is_zero_n16 () FF0)
(declare-fun mul_n17 () FF0)
(declare-fun h_n0 () FF0)
(declare-fun mul_n24 () FF0)
(declare-fun mul_n25 () FF0)
(declare-fun mul_n35 () FF0)
(declare-fun mul_n34 () FF0)
(declare-fun g_n7 () FF0)
(declare-fun is_zero_n19 () FF0)
(declare-fun mul_n23 () FF0)
(declare-fun is_zero_n21 () FF0)
(declare-fun is_zero_inv_n31 () FF0)
(declare-fun mul_n22 () FF0)
(declare-fun f_n1 () FF0)
(declare-fun mul_n9 () FF0)
(declare-fun is_zero_n27 () FF0)
(declare-fun d_n3 () FF0)
(declare-fun e_n2 () FF0)
(declare-fun mul_n10 () FF0)
(declare-fun is_zero_inv_n26 () FF0)
(declare-fun is_zero_n14 () FF0)
(declare-fun is_zero_inv_n20 () FF0)
(declare-fun is_zero_inv_n18 () FF0)
(declare-fun b_n6 () FF0)
(declare-fun c_n4 () FF0)
(declare-fun is_zero_inv_n15 () FF0)
(declare-fun a_n8 () FF0)
(declare-fun is_zero_inv_n13 () FF0)
(declare-fun mul_n11 () FF0)
(assert 
  (let ((let0 b))
  (let ((let1 a))
  (let ((let2 (=> let1 let0)))
  (let ((let3 c))
  (let ((let4 d))
  (let ((let5 (ite let1 let4 let2)))
  (let ((let6 (=> let5 let3)))
  (let ((let7 (and let5 let6)))
  (let ((let8 h))
  (let ((let9 g))
  (let ((let10 f))
  (let ((let11 (or let3 let10 let8 let3 let2 let0 let9 let8 let4 let1)))
  (let ((let12 (or let10 let0 let3 let11)))
  (let ((let13 (= let8 let12)))
  (let ((let14 e))
  (let ((let15 (and let11 let14 let14 let14)))
  (let ((let16 (not let15)))
  (let ((let17 (or let16 let2 let12 let16)))
  (let ((let18 (not let9)))
  (let ((let19 (ite let18 let18 let10)))
  (let ((let20 (=> let19 let17)))
  (let ((let21 (=> let20 let17)))
  (let ((let22 (not let21)))
  (let ((let23 (=> let15 let11)))
  (let ((let24 (or let9 let23 let14 let22 let4 let5 let13)))
  (let ((let25 (ite let7 let24 let7)))
  (let ((let26 (=> let25 let2)))
  (let ((let27 (not let26)))
  (let ((let28 (=> let19 let26)))
  (let ((let29 (and let20 let22 let16 let22 let17)))
  (let ((let30 (not let29)))
  (let ((let31 (= let30 let9)))
  (let ((let32 (or let7 let22 let29)))
  (let ((let33 (=> let32 let23)))
  (let ((let34 (not let25)))
  (let ((let35 (ite let26 let30 let34)))
  (let ((let36 (not let18)))
  (let ((let37 (and let22 let13)))
  (let ((let38 (or let37 let36 let35 let33 let31 let28 let27)))
  (let ((let39 return_n5))
  (let ((let40 (as ff1 FF0)))
  (let ((let41 (= let40 let39)))
  (let ((let42 (= let41 let38)))
  (let ((let43 (as ff0 FF0)))
  (let ((let44 (= let43 let39)))
  (let ((let45 (or let41 let44)))
  (let ((let46 (and let45 let42)))
  (let ((let47 (as ff3 FF0)))
  (let ((let48 mul_n38))
  (let ((let49 (as ff52435875175126190479447740508185965837690552500527637822603658699938581184512 FF0)))
  (let ((let50 mul_n12))
  (let ((let51 (ff.mul let50 let49)))
  (let ((let52 mul_n28))
  (let ((let53 (ff.mul let52 let49)))
  (let ((let54 mul_n37))
  (let ((let55 mul_n30))
  (let ((let56 (ff.mul let55 let49)))
  (let ((let57 mul_n33))
  (let ((let58 mul_n36))
  (let ((let59 (ff.mul let58 let49)))
  (let ((let60 mul_n29))
  (let ((let61 is_zero_n32))
  (let ((let62 (ff.add let61 let60 let59 let57 let56 let54 let53 let51 let48 let47)))
  (let ((let63 is_zero_inv_n39))
  (let ((let64 (ff.mul let63 let62)))
  (let ((let65 (= let64 let39)))
  (let ((let66 is_zero_n16))
  (let ((let67 mul_n17))
  (let ((let68 h_n0))
  (let ((let69 (ff.mul let68 let49)))
  (let ((let70 (ff.add let69 let67 let66)))
  (let ((let71 mul_n24))
  (let ((let72 (ff.mul let71 let70)))
  (let ((let73 (= let72 let48)))
  (let ((let74 (ff.mul let61 let49)))
  (let ((let75 (ff.add let74 let52 let50)))
  (let ((let76 (ff.mul let60 let49)))
  (let ((let77 (ff.add let76 let40)))
  (let ((let78 (ff.mul let77 let75)))
  (let ((let79 (= let78 let54)))
  (let ((let80 mul_n25))
  (let ((let81 mul_n35))
  (let ((let82 (ff.mul let81 let49)))
  (let ((let83 (ff.add let82 let40)))
  (let ((let84 (ff.mul let83 let80)))
  (let ((let85 (= let84 let58)))
  (let ((let86 (ff.add let74 let40)))
  (let ((let87 mul_n34))
  (let ((let88 (ff.mul let87 let86)))
  (let ((let89 (= let88 let81)))
  (let ((let90 (ff.mul let71 let49)))
  (let ((let91 (ff.add let90 let40)))
  (let ((let92 (ff.add let51 let40)))
  (let ((let93 (ff.mul let92 let91)))
  (let ((let94 (= let93 let87)))
  (let ((let95 g_n7))
  (let ((let96 (as ff2 FF0)))
  (let ((let97 (as ff52435875175126190479447740508185965837690552500527637822603658699938581184511 FF0)))
  (let ((let98 (ff.mul let61 let97)))
  (let ((let99 (ff.add let98 let96)))
  (let ((let100 (ff.mul let99 let95)))
  (let ((let101 (= let100 let57)))
  (let ((let102 is_zero_n19))
  (let ((let103 mul_n23))
  (let ((let104 is_zero_n21))
  (let ((let105 (ff.mul let71 let97)))
  (let ((let106 (ff.add let105 let104 let103 let102 let96)))
  (let ((let107 (ff.mul let61 let106)))
  (let ((let108 (= let107 let43)))
  (let ((let109 is_zero_inv_n31))
  (let ((let110 (ff.mul let109 let106)))
  (let ((let111 (= let110 let86)))
  (let ((let112 mul_n22))
  (let ((let113 f_n1))
  (let ((let114 (ff.add let113 let112)))
  (let ((let115 (ff.mul let114 let60)))
  (let ((let116 (= let115 let55)))
  (let ((let117 mul_n9))
  (let ((let118 (ff.add let52 let50)))
  (let ((let119 (ff.mul let118 let117)))
  (let ((let120 (= let119 let60)))
  (let ((let121 is_zero_n27))
  (let ((let122 (ff.mul let121 let49)))
  (let ((let123 (ff.add let51 let122 let40)))
  (let ((let124 (ff.mul let50 let123)))
  (let ((let125 (= let124 let52)))
  (let ((let126 d_n3))
  (let ((let127 (ff.mul let117 let49)))
  (let ((let128 (ff.mul let80 let49)))
  (let ((let129 e_n2))
  (let ((let130 mul_n10))
  (let ((let131 (ff.add let69 let66 let130 let95 let67 let71 let129 let128 let127 let126 let96)))
  (let ((let132 (ff.mul let121 let131)))
  (let ((let133 (= let132 let43)))
  (let ((let134 (ff.add let122 let40)))
  (let ((let135 is_zero_inv_n26))
  (let ((let136 (ff.mul let135 let131)))
  (let ((let137 (= let136 let134)))
  (let ((let138 is_zero_n14))
  (let ((let139 (ff.mul let102 let138)))
  (let ((let140 (= let139 let80)))
  (let ((let141 (ff.mul let103 let49)))
  (let ((let142 (ff.add let141 let40)))
  (let ((let143 (ff.mul let142 let104)))
  (let ((let144 (= let143 let71)))
  (let ((let145 (ff.mul let114 let104)))
  (let ((let146 (= let145 let103)))
  (let ((let147 (ff.mul let95 let49)))
  (let ((let148 (ff.mul let113 let49)))
  (let ((let149 (ff.add let148 let147 let40)))
  (let ((let150 (ff.add let147 let40)))
  (let ((let151 (ff.mul let150 let149)))
  (let ((let152 (= let151 let112)))
  (let ((let153 (as ff4 FF0)))
  (let ((let154 (ff.mul let102 let97)))
  (let ((let155 (ff.mul let66 let49)))
  (let ((let156 (ff.add let155 let127 let154 let153)))
  (let ((let157 (ff.mul let104 let156)))
  (let ((let158 (= let157 let43)))
  (let ((let159 (ff.mul let104 let49)))
  (let ((let160 (ff.add let159 let40)))
  (let ((let161 is_zero_inv_n20))
  (let ((let162 (ff.mul let161 let156)))
  (let ((let163 (= let162 let160)))
  (let ((let164 (as ff52435875175126190479447740508185965837690552500527637822603658699938581184510 FF0)))
  (let ((let165 (ff.mul let129 let164)))
  (let ((let166 (ff.add let138 let165 let47)))
  (let ((let167 (ff.mul let102 let166)))
  (let ((let168 (= let167 let43)))
  (let ((let169 (ff.mul let102 let49)))
  (let ((let170 (ff.add let169 let40)))
  (let ((let171 is_zero_inv_n18))
  (let ((let172 (ff.mul let171 let166)))
  (let ((let173 (= let172 let170)))
  (let ((let174 (ff.add let155 let40)))
  (let ((let175 (ff.mul let68 let96)))
  (let ((let176 (ff.mul let175 let174)))
  (let ((let177 (= let176 let67)))
  (let ((let178 (ff.mul let138 let49)))
  (let ((let179 b_n6))
  (let ((let180 c_n4))
  (let ((let181 (ff.add let180 let113 let179 let178 let40)))
  (let ((let182 (ff.mul let66 let181)))
  (let ((let183 (= let182 let43)))
  (let ((let184 is_zero_inv_n15))
  (let ((let185 (ff.mul let184 let181)))
  (let ((let186 (= let185 let174)))
  (let ((let187 a_n8))
  (let ((let188 (ff.mul let180 let96)))
  (let ((let189 (ff.add let175 let95 let188 let113 let187 let127 let179 let126 let40)))
  (let ((let190 (ff.mul let138 let189)))
  (let ((let191 (= let190 let43)))
  (let ((let192 (ff.add let178 let40)))
  (let ((let193 is_zero_inv_n13))
  (let ((let194 (ff.mul let193 let189)))
  (let ((let195 (= let194 let192)))
  (let ((let196 mul_n11))
  (let ((let197 (ff.mul let196 let49)))
  (let ((let198 (ff.add let197 let40)))
  (let ((let199 (ff.add let127 let130 let40)))
  (let ((let200 (ff.mul let199 let198)))
  (let ((let201 (= let200 let50)))
  (let ((let202 (ff.mul let180 let49)))
  (let ((let203 (ff.add let202 let40)))
  (let ((let204 (ff.mul let199 let203)))
  (let ((let205 (= let204 let196)))
  (let ((let206 (ff.add let117 let126 let49)))
  (let ((let207 (ff.mul let187 let206)))
  (let ((let208 (= let207 let130)))
  (let ((let209 (ff.mul let179 let49)))
  (let ((let210 (ff.add let209 let40)))
  (let ((let211 (ff.mul let187 let210)))
  (let ((let212 (= let211 let117)))
  (let ((let213 (and let212 let208 let205 let201 let195 let191 let186 let183 let177 let173 let168 let163 let158 let152 let146 let144 let140 let137 let133 let125 let120 let116 let111 let108 let101 let94 let89 let85 let79 let73 let65)))
  (let ((let214 (ite let3 let40 let43)))
  (let ((let215 (= let180 let214)))
  (let ((let216 (ite let14 let40 let43)))
  (let ((let217 (= let129 let216)))
  (let ((let218 (ite let4 let40 let43)))
  (let ((let219 (= let126 let218)))
  (let ((let220 (ite let1 let40 let43)))
  (let ((let221 (= let187 let220)))
  (let ((let222 (ite let9 let40 let43)))
  (let ((let223 (= let95 let222)))
  (let ((let224 (ite let10 let40 let43)))
  (let ((let225 (= let113 let224)))
  (let ((let226 (ite let0 let40 let43)))
  (let ((let227 (= let179 let226)))
  (let ((let228 (ite let8 let40 let43)))
  (let ((let229 (= let68 let228)))
  (let ((let230 (and let229 let227 let225 let223 let221 let219 let217 let215)))
  (let ((let231 (and let230 let213)))
  (let ((let232 (=> let231 let46)))
  (let ((let233 (not let232)))
  let233
))))))))))))))))))))))))))))))))))))))))))))))))))))))))))))))))))))))))))))))))))))))))))))))))))))))))))))))))))))))))))))))))))))))))))))))))))))))))))))))))))))))))))))))))))))))))))))))))))))))))))))))))))))))))))))))))))))))))))
)
(check-sat)
